13
-1 74 20 96 21 48 99 68 84 81 34 53 99
18 -1 88 27 67 28 93 48 83 7 21 10 17
13 14 -1 16 35 51 49 19 56 98 3 24 8
44 9 89 -1 95 85 93 43 23 87 14 3 48
58 18 80 96 -1 81 89 98 9 57 72 22 38
92 38 79 90 57 -1 91 15 88 56 11 2 34
72 55 28 46 62 86 -1 33 69 42 44 16 81
98 22 51 21 99 57 76 -1 89 75 12 10 3
69 61 88 1 89 55 23 2 -1 82 85 88 26
17 57 32 32 69 54 21 89 76 -1 68 92 25
55 34 49 41 12 45 60 18 53 39 -1 79 96
87 29 49 37 66 49 93 95 97 16 86 -1 88
82 55 34 14 1 16 71 86 63 13 55 85 -1